(declare-const p351 Real)
(declare-const income Real)
(declare-const p520 Real)
(declare-const p501 Real)
(declare-const p246 Real)
(declare-const fee_bl Real)
(assert (= p246 (* 0.0246 (ite (> income 8040) 8040 income))))
(assert (= p351 (ite (> income 8040) (* 0.0351 (- (ite (> income 48250) 48250 income) 8040)) 0)))
(assert (= p501 (ite (> income 48250) (* 0.0501 (- (ite (> income 77730) 77730 income) 48250)) 0)))
(assert (= p520 (ite (> income 77730) (* 0.0520 (- income 77730)) 0)))
(assert (= fee_bl (+ (+ (+ p246 p351) p501) p520)))